p cnf 30 82
a 11 5 0
e 1 2 3 4 6 7 8 9 10 12 13 14 15 16 17 18 19 20 21 22 23 24 25 26 27 28 29 30 0
-3 1 0
-3 2 0
-1 -2 3 0
1 4 -5 0
-1 -4 -5 0
1 -4 5 0
-1 4 5 0
-6 4 0
-6 -5 0
-4 5 6 0
-2 1 -7 0
2 -1 -7 0
-2 -1 7 0
2 1 7 0
-8 -1 0
-8 -7 0
1 7 8 0
9 1 0
9 -8 0
-1 8 -9 0
-10 1 -11 0
10 -1 -11 0
-10 -1 11 0
10 1 11 0
-9 11 -12 0
9 -11 -12 0
-9 -11 12 0
9 11 12 0
-13 -6 0
-13 -12 0
6 12 13 0
14 3 0
14 -13 0
-3 13 -14 0
10 15 -16 0
-10 -15 -16 0
10 -15 16 0
-10 15 16 0
-17 15 0
-17 -15 0
-18 16 0
-18 -17 0
-16 17 18 0
14 -18 -19 0
-14 18 -19 0
14 18 19 0
-14 -18 19 0
-20 -4 0
-20 -7 0
4 7 20 0
-22 -20 0
-22 -21 0
20 21 22 0
-23 -1 0
-23 -22 0
1 22 23 0
-24 -11 0
-24 -15 0
11 15 24 0
25 23 0
25 24 0
-23 -24 -25 0
-26 27 -28 0
26 -27 -28 0
-26 -27 28 0
26 27 28 0
-25 -28 -29 0
25 28 -29 0
-25 28 29 0
25 -28 29 0
-19 -29 -30 0
19 29 -30 0
-19 29 30 0
19 -29 30 0
-1 21 22 3 0
27 -13 -16 0
-8 29 20 18 -25 0
-9 -23 1 14 0
-13 -17 -16 -27 0
-6 28 -24 -11 3 -4 0
-4 -19 1 -7 26 8 0
30 0
